; benchmark generated from python API
(set-info :status unknown)
(declare-datatypes ((RealState 0)) (((RMk1 (rval1 Real)) (RMk2 (rval2 Real)))))
 (assert
 (exists ((?x1_st RealState) (val!504 Real) )(forall ((?x2 Real) )(exists ((?x3_st RealState) (val!505 Real) )(let ((?x15261 (+ (+ (* 34.0 (rval2 ?x1_st)) (* (- 55.0) ?x2)) (* (- 67.0) (rval2 ?x3_st)))))
 (let (($x20725 (and (= (+ (* 51.0 ?x2) (* (- 3.0) (rval2 ?x3_st))) 63.0) (not (= ?x15261 0.0)))))
 (let (($x12950 (not (= (+ (* (- 62.0) ?x2) (* (- 22.0) (rval2 ?x3_st))) 12.0))))
 (let (($x17717 (or $x12950 (> (+ (* 45.0 (rval2 ?x1_st)) (* 54.0 ?x2)) (- 39.0)))))
 (let ((?x14563 (- 44.0)))
 (let ((?x14635 (+ (+ (* (- 88.0) (rval2 ?x1_st)) (* 32.0 ?x2)) (* (- 79.0) (rval2 ?x3_st)))))
 (let ((?x14258 (- 8.0)))
 (let ((?x12491 (rval2 ?x3_st)))
 (let ((?x15864 (* 24.0 ?x12491)))
 (let (($x5496 (and (< (+ (+ (* 76.0 (rval2 ?x1_st)) (* 94.0 ?x2)) ?x15864) ?x14258) (>= ?x14635 ?x14563))))
 (let (($x15912 (or (>= (+ (* (- 55.0) (rval2 ?x1_st)) (* (- 23.0) ?x12491)) 0.0) (< (+ (* 95.0 (rval2 ?x1_st)) (* 82.0 ?x12491)) (- 59.0)))))
 (let ((?x6508 (+ (+ (* (- 94.0) (rval2 ?x1_st)) (* (- 17.0) ?x2)) (* (- 17.0) ?x12491))))
 (let ((?x33745 (+ (+ (* (- 60.0) (rval2 ?x1_st)) (* 30.0 ?x2)) (* (- 81.0) ?x12491))))
 (let (($x22188 (or (or (and (< ?x33745 49.0) (> ?x6508 80.0)) $x15912) (and (and $x5496 $x17717) $x20725))))
 (let (($x636 (not (= ?x3_st (RMk1 val!505)))))
 (let (($x12990 (not (= ?x1_st (RMk1 val!504)))))
 (and $x12990 $x636 $x22188))))))))))))))))))
 )
 )
 )
(check-sat)
